47 625 625
168
167
166
165
164
163
162
161
175
160
159
158
157
119
120
121
122
123
124
125
30
31
32
29
28
27
26
22
25
23
24
14
13
15
12
11
10
8
9
7
6
5
4
277
276
275
274